DATASET = "thpack3";
INSTANCE = "070";

WIDTH = 233;
HEIGHT = 220;
LENGTH = 587;

NO_OF_SHAPES = 8;
size = [|
  56,32,28 |
  92,68,39 |
  90,86,29 |
  73,54,52 |
  114,100,45 |
  94,51,36 |
  108,59,38 |
  89,82,61 |
|];

verticality = [|
  0,1,1 |
  0,1,1 |
  0,0,1 |
  1,1,1 |
  0,0,1 |
  0,1,1 |
  0,1,1 |
  1,1,1 |
|];

box_count = [
  9,
  11,
  19,
  19,
  20,
  9,
  12,
  9,
];
